c Sudoku solution
p cnf 729 0
118 0
146 0
179 0
185 0
234 0
349 0
364 0
194 0
393 0
427 0
488 0
538 0
591 0
636 0
662 0
674 0
759 0
776 0
792 0
824 0
833 0
866 0
919 0
926 0
728 0
229 0
439 0
569 0
963 0
783 0
984 0
744 0
268 0
378 0
975 0
461 0
167 0
765 0
815 0
932 0
131 0
621 0
613 0
525 0
711 0
737 0
123 0
152 0
322 0
335 0
351 0
842 0
941 0
648 0
547 0
655 0
443 0
472 0
573 0
414 0
512 0
456 0
554 0
495 0
586 0
245 0
253 0
282 0
271 0
877 0
881 0
998 0
899 0
858 0
957 0
387 0
296 0
217 0
316 0
689 0
697 0
